p edge 100 1511
e 1 4
e 1 9
e 1 12
e 1 15
e 1 16
e 1 17
e 1 18
e 1 19
e 1 20
e 1 22
e 1 23
e 1 29
e 1 34
e 1 35
e 1 37
e 1 38
e 1 41
e 1 42
e 1 44
e 1 45
e 1 46
e 1 49
e 1 52
e 1 55
e 1 56
e 1 57
e 1 58
e 1 60
e 1 62
e 1 67
e 1 70
e 1 72
e 1 73
e 1 76
e 1 83
e 1 85
e 1 91
e 1 96
e 1 97
e 2 4
e 2 5
e 2 6
e 2 7
e 2 8
e 2 17
e 2 19
e 2 21
e 2 24
e 2 33
e 2 35
e 2 37
e 2 42
e 2 45
e 2 46
e 2 47
e 2 48
e 2 50
e 2 56
e 2 58
e 2 59
e 2 63
e 2 67
e 2 69
e 2 70
e 2 72
e 2 79
e 2 80
e 2 91
e 2 94
e 2 95
e 3 6
e 3 10
e 3 11
e 3 17
e 3 18
e 3 21
e 3 24
e 3 29
e 3 32
e 3 34
e 3 39
e 3 43
e 3 45
e 3 47
e 3 49
e 3 50
e 3 56
e 3 57
e 3 58
e 3 60
e 3 61
e 3 68
e 3 72
e 3 77
e 3 83
e 3 94
e 3 96
e 3 99
e 3 100
e 4 6
e 4 8
e 4 11
e 4 15
e 4 16
e 4 17
e 4 23
e 4 28
e 4 30
e 4 31
e 4 38
e 4 39
e 4 43
e 4 48
e 4 49
e 4 53
e 4 59
e 4 62
e 4 64
e 4 65
e 4 68
e 4 70
e 4 73
e 4 78
e 4 79
e 4 81
e 4 84
e 4 85
e 4 87
e 4 98
e 4 99
e 4 100
e 5 6
e 5 7
e 5 8
e 5 9
e 5 11
e 5 19
e 5 43
e 5 44
e 5 47
e 5 50
e 5 53
e 5 55
e 5 56
e 5 58
e 5 59
e 5 64
e 5 65
e 5 70
e 5 78
e 5 79
e 5 87
e 5 88
e 5 90
e 5 91
e 5 92
e 5 98
e 6 11
e 6 14
e 6 18
e 6 20
e 6 23
e 6 24
e 6 25
e 6 32
e 6 36
e 6 38
e 6 39
e 6 40
e 6 41
e 6 43
e 6 44
e 6 47
e 6 49
e 6 50
e 6 52
e 6 55
e 6 59
e 6 60
e 6 62
e 6 65
e 6 68
e 6 69
e 6 70
e 6 71
e 6 74
e 6 75
e 6 76
e 6 78
e 6 84
e 6 86
e 6 88
e 6 89
e 6 91
e 6 92
e 6 97
e 6 98
e 6 99
e 6 100
e 7 11
e 7 18
e 7 20
e 7 22
e 7 23
e 7 25
e 7 26
e 7 34
e 7 37
e 7 45
e 7 46
e 7 49
e 7 52
e 7 59
e 7 61
e 7 64
e 7 72
e 7 86
e 7 90
e 7 95
e 7 98
e 7 99
e 7 100
e 8 15
e 8 20
e 8 21
e 8 22
e 8 30
e 8 33
e 8 40
e 8 41
e 8 42
e 8 44
e 8 45
e 8 47
e 8 49
e 8 52
e 8 56
e 8 61
e 8 62
e 8 63
e 8 65
e 8 70
e 8 76
e 8 83
e 8 84
e 8 85
e 8 92
e 8 93
e 8 95
e 8 99
e 8 100
e 9 13
e 9 14
e 9 16
e 9 20
e 9 23
e 9 27
e 9 28
e 9 33
e 9 38
e 9 39
e 9 51
e 9 54
e 9 55
e 9 60
e 9 63
e 9 68
e 9 69
e 9 73
e 9 74
e 9 80
e 9 81
e 9 84
e 9 86
e 9 92
e 9 96
e 9 99
e 10 15
e 10 16
e 10 23
e 10 25
e 10 37
e 10 40
e 10 41
e 10 45
e 10 46
e 10 54
e 10 55
e 10 62
e 10 65
e 10 70
e 10 71
e 10 75
e 10 76
e 10 80
e 10 82
e 10 85
e 10 87
e 10 91
e 10 92
e 10 94
e 10 95
e 10 96
e 10 98
e 11 16
e 11 18
e 11 21
e 11 22
e 11 23
e 11 26
e 11 28
e 11 34
e 11 36
e 11 38
e 11 50
e 11 51
e 11 52
e 11 58
e 11 60
e 11 61
e 11 72
e 11 81
e 11 83
e 11 90
e 11 94
e 11 98
e 12 13
e 12 16
e 12 18
e 12 21
e 12 24
e 12 25
e 12 28
e 12 32
e 12 33
e 12 34
e 12 35
e 12 41
e 12 47
e 12 52
e 12 58
e 12 59
e 12 62
e 12 65
e 12 68
e 12 70
e 12 71
e 12 76
e 12 77
e 12 78
e 12 80
e 12 81
e 12 85
e 12 89
e 12 90
e 12 96
e 12 98
e 12 100
e 13 16
e 13 20
e 13 24
e 13 26
e 13 36
e 13 46
e 13 51
e 13 61
e 13 62
e 13 64
e 13 65
e 13 67
e 13 72
e 13 74
e 13 75
e 13 76
e 13 83
e 13 84
e 13 87
e 13 88
e 13 90
e 13 91
e 13 96
e 14 21
e 14 26
e 14 30
e 14 37
e 14 39
e 14 40
e 14 45
e 14 56
e 14 58
e 14 59
e 14 60
e 14 61
e 14 62
e 14 64
e 14 71
e 14 72
e 14 73
e 14 80
e 14 81
e 14 86
e 14 88
e 14 94
e 14 100
e 15 21
e 15 27
e 15 31
e 15 36
e 15 43
e 15 45
e 15 46
e 15 49
e 15 51
e 15 54
e 15 55
e 15 60
e 15 61
e 15 62
e 15 67
e 15 70
e 15 72
e 15 75
e 15 76
e 15 77
e 15 78
e 15 82
e 15 91
e 15 95
e 16 21
e 16 22
e 16 24
e 16 26
e 16 27
e 16 29
e 16 33
e 16 42
e 16 43
e 16 44
e 16 47
e 16 48
e 16 49
e 16 51
e 16 56
e 16 63
e 16 66
e 16 67
e 16 71
e 16 74
e 16 75
e 16 76
e 16 79
e 16 82
e 16 86
e 16 87
e 16 90
e 16 96
e 16 97
e 17 18
e 17 25
e 17 29
e 17 34
e 17 37
e 17 43
e 17 44
e 17 57
e 17 60
e 17 65
e 17 66
e 17 67
e 17 69
e 17 78
e 17 88
e 17 89
e 17 91
e 17 96
e 18 22
e 18 25
e 18 28
e 18 30
e 18 32
e 18 35
e 18 36
e 18 42
e 18 44
e 18 48
e 18 58
e 18 61
e 18 62
e 18 64
e 18 67
e 18 68
e 18 71
e 18 79
e 18 80
e 18 87
e 18 88
e 18 90
e 18 91
e 18 94
e 18 95
e 18 96
e 19 23
e 19 24
e 19 31
e 19 32
e 19 35
e 19 36
e 19 39
e 19 40
e 19 44
e 19 48
e 19 56
e 19 60
e 19 61
e 19 64
e 19 68
e 19 75
e 19 76
e 19 77
e 19 82
e 19 84
e 19 86
e 19 89
e 19 92
e 19 93
e 19 95
e 20 22
e 20 26
e 20 31
e 20 36
e 20 42
e 20 47
e 20 56
e 20 58
e 20 74
e 20 79
e 20 80
e 20 81
e 20 84
e 20 85
e 20 86
e 20 89
e 20 91
e 20 92
e 20 93
e 20 94
e 20 97
e 21 23
e 21 26
e 21 28
e 21 41
e 21 43
e 21 46
e 21 55
e 21 56
e 21 57
e 21 60
e 21 61
e 21 62
e 21 63
e 21 65
e 21 67
e 21 68
e 21 77
e 21 83
e 21 87
e 21 88
e 21 93
e 21 94
e 21 95
e 21 96
e 21 97
e 21 99
e 21 100
e 22 24
e 22 28
e 22 35
e 22 42
e 22 45
e 22 46
e 22 48
e 22 49
e 22 52
e 22 54
e 22 56
e 22 57
e 22 58
e 22 59
e 22 65
e 22 68
e 22 71
e 22 74
e 22 82
e 22 83
e 22 86
e 22 91
e 22 92
e 22 93
e 22 94
e 22 100
e 23 28
e 23 32
e 23 33
e 23 37
e 23 42
e 23 44
e 23 51
e 23 52
e 23 53
e 23 54
e 23 55
e 23 58
e 23 66
e 23 69
e 23 72
e 23 76
e 23 77
e 23 81
e 23 87
e 23 91
e 23 95
e 23 99
e 24 25
e 24 27
e 24 29
e 24 31
e 24 34
e 24 46
e 24 50
e 24 53
e 24 56
e 24 57
e 24 59
e 24 61
e 24 65
e 24 73
e 24 83
e 24 84
e 24 89
e 24 92
e 24 95
e 24 96
e 24 99
e 25 26
e 25 28
e 25 30
e 25 31
e 25 35
e 25 38
e 25 40
e 25 44
e 25 47
e 25 48
e 25 59
e 25 67
e 25 70
e 25 71
e 25 73
e 25 80
e 25 84
e 25 85
e 25 91
e 26 27
e 26 29
e 26 30
e 26 33
e 26 36
e 26 39
e 26 43
e 26 55
e 26 56
e 26 61
e 26 62
e 26 63
e 26 69
e 26 72
e 26 73
e 26 74
e 26 76
e 26 81
e 26 83
e 26 84
e 26 88
e 26 89
e 26 90
e 26 94
e 26 97
e 26 100
e 27 28
e 27 30
e 27 36
e 27 37
e 27 39
e 27 41
e 27 49
e 27 51
e 27 52
e 27 53
e 27 54
e 27 55
e 27 59
e 27 72
e 27 76
e 27 79
e 27 82
e 27 85
e 27 86
e 27 88
e 27 91
e 27 97
e 27 98
e 28 32
e 28 34
e 28 39
e 28 40
e 28 42
e 28 43
e 28 48
e 28 49
e 28 52
e 28 56
e 28 58
e 28 60
e 28 61
e 28 63
e 28 65
e 28 66
e 28 68
e 28 70
e 28 72
e 28 79
e 28 83
e 28 85
e 28 90
e 28 93
e 28 95
e 28 98
e 29 31
e 29 35
e 29 40
e 29 43
e 29 46
e 29 54
e 29 57
e 29 62
e 29 63
e 29 70
e 29 72
e 29 73
e 29 74
e 29 77
e 29 78
e 29 81
e 29 87
e 29 89
e 29 90
e 29 97
e 30 31
e 30 33
e 30 35
e 30 36
e 30 41
e 30 43
e 30 47
e 30 50
e 30 51
e 30 53
e 30 64
e 30 66
e 30 67
e 30 73
e 30 75
e 30 78
e 30 81
e 30 82
e 30 88
e 30 89
e 30 92
e 30 94
e 30 95
e 31 34
e 31 36
e 31 39
e 31 40
e 31 43
e 31 44
e 31 46
e 31 50
e 31 51
e 31 53
e 31 55
e 31 65
e 31 69
e 31 74
e 31 77
e 31 82
e 31 84
e 31 88
e 31 92
e 31 97
e 32 41
e 32 42
e 32 46
e 32 47
e 32 56
e 32 57
e 32 59
e 32 63
e 32 79
e 32 81
e 32 84
e 32 85
e 32 90
e 32 91
e 32 92
e 32 96
e 32 100
e 33 37
e 33 39
e 33 40
e 33 53
e 33 58
e 33 59
e 33 64
e 33 79
e 33 81
e 33 82
e 33 83
e 33 85
e 33 91
e 33 92
e 33 97
e 33 98
e 33 100
e 34 35
e 34 38
e 34 52
e 34 56
e 34 58
e 34 61
e 34 62
e 34 63
e 34 64
e 34 65
e 34 67
e 34 71
e 34 72
e 34 75
e 34 81
e 34 86
e 34 88
e 34 92
e 34 94
e 35 37
e 35 38
e 35 39
e 35 40
e 35 47
e 35 48
e 35 54
e 35 57
e 35 60
e 35 63
e 35 64
e 35 68
e 35 69
e 35 74
e 35 77
e 35 83
e 35 85
e 35 86
e 35 94
e 35 95
e 35 97
e 36 39
e 36 42
e 36 44
e 36 45
e 36 57
e 36 59
e 36 60
e 36 65
e 36 67
e 36 68
e 36 78
e 36 80
e 36 83
e 36 88
e 36 90
e 36 91
e 36 95
e 36 98
e 37 45
e 37 46
e 37 51
e 37 57
e 37 63
e 37 65
e 37 68
e 37 75
e 37 76
e 37 79
e 37 81
e 37 82
e 37 83
e 37 84
e 38 40
e 38 44
e 38 48
e 38 51
e 38 58
e 38 61
e 38 62
e 38 63
e 38 67
e 38 68
e 38 73
e 38 77
e 38 81
e 38 84
e 38 92
e 38 94
e 38 96
e 38 99
e 38 100
e 39 44
e 39 47
e 39 48
e 39 49
e 39 50
e 39 52
e 39 53
e 39 64
e 39 68
e 39 69
e 39 71
e 39 73
e 39 74
e 39 84
e 39 87
e 39 88
e 39 89
e 39 90
e 39 91
e 39 92
e 39 94
e 39 96
e 39 100
e 40 44
e 40 47
e 40 51
e 40 52
e 40 56
e 40 58
e 40 72
e 40 73
e 40 80
e 40 81
e 40 87
e 40 93
e 40 95
e 40 96
e 40 99
e 41 44
e 41 62
e 41 69
e 41 70
e 41 74
e 41 77
e 41 81
e 41 84
e 41 85
e 41 87
e 41 89
e 41 92
e 41 94
e 41 95
e 41 96
e 41 97
e 41 99
e 42 47
e 42 51
e 42 58
e 42 59
e 42 63
e 42 65
e 42 71
e 42 75
e 42 77
e 42 78
e 42 79
e 42 80
e 42 81
e 42 82
e 42 83
e 42 93
e 42 98
e 42 99
e 43 45
e 43 46
e 43 50
e 43 55
e 43 59
e 43 60
e 43 65
e 43 66
e 43 68
e 43 71
e 43 77
e 43 81
e 43 86
e 43 87
e 43 89
e 43 100
e 44 47
e 44 48
e 44 50
e 44 56
e 44 65
e 44 66
e 44 69
e 44 70
e 44 73
e 44 79
e 44 83
e 44 84
e 44 97
e 44 100
e 45 47
e 45 48
e 45 49
e 45 51
e 45 53
e 45 56
e 45 58
e 45 60
e 45 72
e 45 74
e 45 76
e 45 78
e 45 80
e 45 81
e 45 82
e 45 83
e 45 88
e 45 89
e 45 93
e 45 96
e 45 97
e 45 98
e 46 47
e 46 48
e 46 50
e 46 52
e 46 54
e 46 56
e 46 58
e 46 64
e 46 65
e 46 66
e 46 70
e 46 74
e 46 75
e 46 78
e 46 81
e 46 84
e 46 88
e 46 90
e 46 92
e 47 49
e 47 50
e 47 51
e 47 54
e 47 56
e 47 60
e 47 74
e 47 76
e 47 81
e 47 85
e 47 87
e 47 90
e 47 93
e 47 96
e 47 98
e 47 99
e 48 50
e 48 51
e 48 52
e 48 60
e 48 61
e 48 63
e 48 65
e 48 74
e 48 76
e 48 77
e 48 79
e 48 91
e 48 96
e 49 56
e 49 57
e 49 58
e 49 59
e 49 63
e 49 66
e 49 70
e 49 72
e 49 83
e 49 87
e 49 88
e 49 89
e 49 91
e 49 96
e 49 97
e 50 52
e 50 54
e 50 62
e 50 71
e 50 73
e 50 76
e 50 80
e 50 81
e 50 84
e 50 88
e 50 89
e 50 93
e 50 94
e 50 97
e 51 54
e 51 58
e 51 59
e 51 60
e 51 62
e 51 66
e 51 70
e 51 71
e 51 72
e 51 73
e 51 75
e 51 79
e 51 86
e 51 88
e 51 90
e 51 91
e 51 94
e 51 95
e 51 97
e 52 63
e 52 67
e 52 70
e 52 71
e 52 76
e 52 77
e 52 84
e 52 94
e 52 97
e 52 98
e 52 99
e 53 58
e 53 60
e 53 61
e 53 63
e 53 65
e 53 66
e 53 67
e 53 68
e 53 69
e 53 73
e 53 80
e 53 81
e 53 86
e 53 87
e 53 88
e 53 94
e 53 96
e 53 98
e 54 57
e 54 60
e 54 66
e 54 72
e 54 75
e 54 78
e 54 81
e 54 83
e 54 85
e 54 94
e 54 97
e 54 99
e 54 100
e 55 56
e 55 60
e 55 61
e 55 62
e 55 78
e 55 81
e 55 85
e 55 88
e 55 91
e 55 93
e 55 95
e 56 63
e 56 68
e 56 73
e 56 74
e 56 76
e 56 77
e 56 80
e 56 82
e 56 86
e 56 92
e 56 100
e 57 59
e 57 61
e 57 62
e 57 63
e 57 66
e 57 68
e 57 70
e 57 73
e 57 77
e 57 79
e 57 81
e 57 87
e 57 92
e 57 93
e 57 94
e 57 97
e 58 63
e 58 69
e 58 72
e 58 74
e 58 76
e 58 81
e 58 84
e 58 89
e 58 90
e 58 91
e 58 92
e 59 65
e 59 66
e 59 67
e 59 68
e 59 70
e 59 74
e 59 75
e 59 80
e 59 81
e 59 82
e 59 86
e 59 87
e 59 94
e 60 61
e 60 63
e 60 65
e 60 66
e 60 71
e 60 73
e 60 76
e 60 77
e 60 79
e 60 82
e 60 85
e 60 92
e 60 95
e 60 96
e 60 97
e 61 62
e 61 63
e 61 65
e 61 71
e 61 78
e 61 83
e 61 87
e 61 88
e 61 91
e 61 95
e 61 99
e 62 75
e 62 79
e 62 80
e 62 83
e 62 85
e 62 87
e 62 88
e 62 91
e 62 95
e 62 100
e 63 65
e 63 70
e 63 72
e 63 74
e 63 76
e 63 83
e 63 87
e 63 90
e 63 95
e 63 96
e 63 98
e 63 99
e 64 66
e 64 71
e 64 72
e 64 79
e 64 80
e 64 82
e 64 85
e 64 93
e 64 94
e 64 96
e 64 97
e 65 66
e 65 72
e 65 80
e 65 82
e 65 85
e 65 86
e 65 87
e 66 68
e 66 71
e 66 72
e 66 77
e 66 86
e 66 88
e 66 90
e 66 97
e 66 99
e 67 68
e 67 70
e 67 71
e 67 72
e 67 78
e 67 82
e 67 84
e 67 87
e 67 88
e 67 90
e 67 91
e 67 94
e 67 99
e 68 69
e 68 70
e 68 72
e 68 74
e 68 75
e 68 78
e 68 81
e 68 84
e 68 93
e 68 95
e 68 98
e 69 72
e 69 76
e 69 77
e 69 81
e 69 83
e 69 84
e 69 91
e 70 72
e 70 74
e 70 76
e 70 80
e 70 83
e 70 88
e 70 89
e 70 91
e 70 95
e 70 96
e 70 98
e 70 100
e 71 72
e 71 74
e 71 75
e 71 77
e 71 82
e 71 83
e 71 86
e 71 89
e 71 90
e 71 97
e 71 99
e 72 73
e 72 74
e 72 78
e 72 81
e 72 93
e 72 94
e 72 95
e 72 98
e 72 99
e 72 100
e 73 74
e 73 75
e 73 77
e 73 78
e 73 80
e 73 82
e 73 89
e 73 90
e 73 95
e 73 100
e 74 75
e 74 80
e 74 83
e 74 88
e 74 90
e 74 93
e 74 94
e 74 95
e 75 80
e 75 85
e 75 87
e 75 98
e 75 100
e 76 79
e 76 84
e 76 86
e 76 91
e 76 94
e 77 79
e 77 81
e 77 83
e 77 90
e 77 91
e 77 93
e 78 83
e 78 84
e 78 87
e 78 89
e 78 92
e 79 81
e 79 83
e 79 86
e 79 90
e 79 93
e 79 100
e 80 81
e 80 85
e 80 87
e 80 88
e 80 93
e 80 95
e 80 98
e 80 100
e 81 82
e 81 83
e 81 86
e 81 87
e 81 88
e 81 96
e 81 97
e 81 100
e 82 83
e 82 84
e 82 86
e 82 88
e 82 90
e 82 93
e 82 95
e 82 96
e 82 99
e 82 100
e 83 86
e 83 90
e 83 91
e 83 93
e 83 97
e 83 99
e 84 88
e 84 89
e 84 92
e 84 95
e 84 96
e 85 86
e 85 88
e 85 92
e 85 95
e 85 97
e 85 98
e 85 100
e 86 87
e 86 88
e 86 89
e 86 92
e 86 97
e 86 100
e 87 88
e 87 94
e 87 96
e 87 97
e 87 98
e 88 89
e 88 91
e 88 94
e 88 96
e 89 92
e 89 97
e 89 98
e 89 100
e 90 95
e 91 96
e 91 99
e 91 100
e 92 93
e 92 98
e 92 99
e 93 94
e 93 99
e 94 96
e 95 97
e 95 98
e 98 99
e 98 100
